137
1000000
305853
398220
165197
278638
440101
11505
134625
81207
96975
347974
88490
152020
181551
121862
450654
293487
10912
75331
408377
132102
238678
306397
340616
216118
156432
355063
326285
278853
43039
168372
422313
45545
233611
74868
149471
138451
311777
80158
282305
325699
382440
202877
71211
260812
494022
353555
193285
36364
174683
487175
137015
125496
50133
121484
5075
386503
369021
400171
445754
203955
224579
56196
94522
384453
420835
296217
57757
145219
360352
317
287585
129865
6056
169340
50232
253806
79319
367848
317093
327281
310056
263454
102605
182679
225660
243542
407350
314295
85764
432185
330639
216388
379186
267747
109689
452856
303721
444393
77298
164009
28334
192111
102016
322197
129347
88570
155955
174662
77074
124888
409825
9607
278878
31835
86832
44754
207111
247694
133728
81181
221813
334838
470585
17240
341328
271227
185109
434805
434632
189272
497432
68432
322929
188445
142642
28402
11719
